1,1,10,1,8,1,2,1,2,2,7,1,5,6,7,4;3,1,4,2,1,2,6,4,5,2,8,2,7,2,2,5,8,5,2,6;6,1,4,3,3,3,5,1,6,3,1,3,5,3,9,3,8,3,7,3;4,1,9,1,3,4,6,5,10,4,1,4,2,4,9,4,10,6;3,2,6,2,9,2,4,5,10,3,2,3,10,5,5,5,1,5,3,5,8,4,9,5,9,6,7,6;4,4,10,2,6,6,5,4,4,6,1,6,3,6,7,5,8,6;
